Welcome to the CBC MILP Solver 
Version: 2.10.12 
Build Date: Aug 20 2024 

command line - /opt/homebrew/bin/cbc computational_data/real_data/lp/penguins_trial_014_margin.lp seconds 10.0 solve solu computational_data/real_data/solutions/penguins_trial_014_margin.sol (default strategy 1)
 CoinLpIO::readLp(): Maximization problem reformulated as minimization
Coin0009I Switching back to maximization to get correct duals etc
seconds was changed from 1e+100 to 10
Continuous objective value is 66.2082 - 0.00 seconds
Cgl0003I 0 fixed, 0 tightened bounds, 44 strengthened rows, 4 substitutions
Cgl0003I 0 fixed, 0 tightened bounds, 57 strengthened rows, 0 substitutions
Cgl0003I 0 fixed, 0 tightened bounds, 43 strengthened rows, 0 substitutions
Cgl0003I 0 fixed, 0 tightened bounds, 33 strengthened rows, 0 substitutions
Cgl0003I 0 fixed, 0 tightened bounds, 20 strengthened rows, 0 substitutions
Cgl0003I 0 fixed, 0 tightened bounds, 10 strengthened rows, 0 substitutions
Cgl0003I 0 fixed, 0 tightened bounds, 4 strengthened rows, 0 substitutions
Cgl0003I 0 fixed, 0 tightened bounds, 2 strengthened rows, 0 substitutions
Cgl0003I 0 fixed, 0 tightened bounds, 2 strengthened rows, 0 substitutions
Cgl0004I processed model has 70 rows, 33 columns (33 integer (33 of which binary)) and 682 elements
Cbc0038I Initial state - 14 integers unsatisfied sum - 6.13333
Cbc0038I Pass   1: suminf.    2.30000 (6) obj. 64.508 iterations 12
Cbc0038I Pass   2: suminf.    1.40000 (4) obj. 63.608 iterations 7
Cbc0038I Solution found of 61.008
Cbc0038I Before mini branch and bound, 16 integers at bound fixed and 0 continuous
Cbc0038I Full problem 70 rows 33 columns, reduced to 35 rows 16 columns
Cbc0038I Mini branch and bound did not improve solution (0.01 seconds)
Cbc0038I Round again with cutoff of 61.3947
Cbc0038I Pass   3: suminf.    2.30000 (6) obj. 64.508 iterations 0
Cbc0038I Pass   4: suminf.    1.90000 (5) obj. 64.108 iterations 9
Cbc0038I Pass   5: suminf.    1.40000 (4) obj. 63.608 iterations 3
Cbc0038I Pass   6: suminf.    0.38668 (1) obj. 61.3947 iterations 8
Cbc0038I Pass   7: suminf.    0.40000 (1) obj. 61.408 iterations 1
Cbc0038I Pass   8: suminf.    1.23333 (3) obj. 61.5747 iterations 10
Cbc0038I Pass   9: suminf.    1.05334 (3) obj. 61.3947 iterations 6
Cbc0038I Pass  10: suminf.    1.05334 (3) obj. 61.3947 iterations 4
Cbc0038I Pass  11: suminf.    1.05334 (3) obj. 61.3947 iterations 0
Cbc0038I Pass  12: suminf.    1.05334 (3) obj. 61.3947 iterations 1
Cbc0038I Pass  13: suminf.    1.05334 (3) obj. 61.3947 iterations 0
Cbc0038I Pass  14: suminf.    1.05334 (3) obj. 61.3947 iterations 1
Cbc0038I Pass  15: suminf.    1.05334 (3) obj. 61.3947 iterations 11
Cbc0038I Pass  16: suminf.    1.41332 (4) obj. 61.3947 iterations 18
Cbc0038I Pass  17: suminf.    1.38668 (4) obj. 61.3947 iterations 16
Cbc0038I Pass  18: suminf.    1.41332 (4) obj. 61.3947 iterations 2
Cbc0038I Pass  19: suminf.    1.41332 (4) obj. 61.3947 iterations 9
Cbc0038I Pass  20: suminf.    1.38668 (4) obj. 61.3947 iterations 7
Cbc0038I Pass  21: suminf.    1.41332 (4) obj. 61.3947 iterations 2
Cbc0038I Pass  22: suminf.    1.52001 (5) obj. 61.3947 iterations 13
Cbc0038I Pass  23: suminf.    1.52001 (5) obj. 61.3947 iterations 7
Cbc0038I Pass  24: suminf.    1.41332 (4) obj. 61.3947 iterations 6
Cbc0038I Pass  25: suminf.    2.18668 (6) obj. 61.3947 iterations 14
Cbc0038I Pass  26: suminf.    2.18668 (6) obj. 61.3947 iterations 6
Cbc0038I Pass  27: suminf.    4.50667 (14) obj. 61.3947 iterations 17
Cbc0038I Pass  28: suminf.    2.18668 (6) obj. 61.3947 iterations 9
Cbc0038I Pass  29: suminf.    2.18668 (6) obj. 61.3947 iterations 3
Cbc0038I Pass  30: suminf.    1.41332 (4) obj. 61.3947 iterations 2
Cbc0038I Pass  31: suminf.    1.38668 (4) obj. 61.3947 iterations 1
Cbc0038I Pass  32: suminf.    4.38889 (13) obj. 61.6191 iterations 18
Cbc0038I No solution found this major pass
Cbc0038I Before mini branch and bound, 6 integers at bound fixed and 0 continuous
Cbc0038I Full problem 70 rows 33 columns, reduced to 60 rows 27 columns
Cbc0038I Mini branch and bound did not improve solution (0.01 seconds)
Cbc0038I After 0.01 seconds - Feasibility pump exiting with objective of 61.008 - took 0.01 seconds
Cbc0012I Integer solution of 61.008 found by feasibility pump after 0 iterations and 0 nodes (0.01 seconds)
Cbc0038I Full problem 70 rows 33 columns, reduced to 35 rows 16 columns
Cbc0031I 8 added rows had average density of 21.375
Cbc0013I At root node, 14 cuts changed objective from 64.874667 to 61.008 in 2 passes
Cbc0014I Cut generator 0 (Probing) - 0 row cuts average 0.0 elements, 0 column cuts (0 active)  in 0.000 seconds - new frequency is -100
Cbc0014I Cut generator 1 (Gomory) - 10 row cuts average 21.2 elements, 0 column cuts (0 active)  in 0.000 seconds - new frequency is 1
Cbc0014I Cut generator 2 (Knapsack) - 4 row cuts average 10.5 elements, 0 column cuts (0 active)  in 0.000 seconds - new frequency is 1
Cbc0014I Cut generator 3 (Clique) - 0 row cuts average 0.0 elements, 0 column cuts (0 active)  in 0.000 seconds - new frequency is -100
Cbc0014I Cut generator 4 (MixedIntegerRounding2) - 0 row cuts average 0.0 elements, 0 column cuts (0 active)  in 0.000 seconds - new frequency is -100
Cbc0014I Cut generator 5 (FlowCover) - 0 row cuts average 0.0 elements, 0 column cuts (0 active)  in 0.000 seconds - new frequency is -100
Cbc0014I Cut generator 6 (TwoMirCuts) - 14 row cuts average 18.4 elements, 0 column cuts (0 active)  in 0.000 seconds - new frequency is -100
Cbc0001I Search completed - best objective 61.008, took 24 iterations and 0 nodes (0.02 seconds)
Cbc0035I Maximum depth 0, 10 variables fixed on reduced cost
Cuts at root node changed objective from 64.8747 to 61.008
Probing was tried 2 times and created 0 cuts of which 0 were active after adding rounds of cuts (0.000 seconds)
Gomory was tried 2 times and created 10 cuts of which 0 were active after adding rounds of cuts (0.000 seconds)
Knapsack was tried 2 times and created 4 cuts of which 0 were active after adding rounds of cuts (0.000 seconds)
Clique was tried 2 times and created 0 cuts of which 0 were active after adding rounds of cuts (0.000 seconds)
MixedIntegerRounding2 was tried 2 times and created 0 cuts of which 0 were active after adding rounds of cuts (0.000 seconds)
FlowCover was tried 2 times and created 0 cuts of which 0 were active after adding rounds of cuts (0.000 seconds)
TwoMirCuts was tried 2 times and created 14 cuts of which 0 were active after adding rounds of cuts (0.000 seconds)
ZeroHalf was tried 1 times and created 0 cuts of which 0 were active after adding rounds of cuts (0.000 seconds)

Result - Optimal solution found

Objective value:                61.00800000
Enumerated nodes:               0
Total iterations:               24
Time (CPU seconds):             0.02
Time (Wallclock seconds):       0.02

Total time (CPU seconds):       0.02   (Wallclock seconds):       0.02

